[[69, 67, 68, 78, 77, 79, 88, 89, 90, 99, 98, 97, 96, 87, 95, 86, 85, 76, 84, 94], [93, 92, 91, 83, 82, 73, 75, 74, 66, 65, 64, 56, 58, 59, 60, 49, 57], [55, 46, 47, 38, 48, 39, 40, 50, 41, 32, 31, 30, 29, 37, 28, 19, 20, 21, 22, 13, 12], [11, 10, 2, 3, 4, 14, 5, 6, 7, 8, 9, 18, 17, 16, 15, 23, 24, 25], [26, 27, 35, 36, 44, 34, 33, 43, 42, 45, 51, 52, 54, 53, 63, 62, 61, 72, 81, 71, 70, 80]]